(set-logic ALL)
(declare-const BAV1 Bool)
(set-option :model_validate true)
(declare-const s1 String)
(declare-const s2 String)
(declare-const s3 String)
(assert (= (str.replace s1 s2 s3) s3))
(assert (= BAV1 (= (str.replace s1 s2 s3) s3)))
(check-sat)
(get-model)